H2O.gas Local                           
   1.00     
    10.0000000000000000    0.0000000000000000    0.0000000000000000
     0.0000000000000000   10.0000000000000000    0.0000000000000000
     0.0000000000000000    0.0000000000000000   10.0000000000000000
   O    H 
     1     2
Selective dynamics
Direct
  0.5  0.5  0.5   T   T   T
  0.6  0.5  0.5   T   T   T
  0.5  0.6  0.5   T   T   T
 
  0.00000000E+00  0.00000000E+00  0.00000000E+00
  0.00000000E+00  0.00000000E+00  0.00000000E+00
  0.00000000E+00  0.00000000E+00  0.00000000E+00
